c status 90 1469386216866
c status 30 1469386216868
c status 28 1469386216875
s td 74 28 128
b 1 36 46
b 2 50 85
b 3 22 88 100 76
b 4 47 51 96 42
b 5 43 40 37 35 49 53 39 2
b 6 25 60 17 101 91 12 116 99 111
b 7 17 101 91 12 116 99 111 76
b 8 40 37 35 54 118 49 53 39 2
b 9 81 102 82 119 31
b 10 44 74 14 48 46 1
b 11 67 83 18 114 13 70 95 110 104 86 65 77 69 90 2 15 27 28 64 94 103 120 123
b 12 83 18 114 13 70 95 110 104 86 65 77 69 90 2 5 15 27 28 64 73 94 103 120 123
b 13 91 12 116 66 99 111 76
b 14 74 3 14 34 48 63 46 1
b 15 51 96 42 38 41 52 55 3 34 63
b 16 12 116 66 99 111 100 76
b 17 37 35 54 118 49 53 39 55 2
b 18 29 108 113 112 21 68 16 30 56 125 126
b 19 108 113 112 21 68 16 30 56 117 121 125 126
b 20 18 114 13 70 95 110 104 86 65 77 69 90 2 5 15 16 26 27 28 64 73 94 103 120 123
b 21 114 13 70 95 110 104 86 65 77 69 90 2 5 15 16 26 27 28 64 73 94 103 120 122 123
b 22 13 70 95 110 104 86 65 77 69 90 2 5 15 16 26 27 28 33 64 73 94 103 115 120 122 123
b 23 70 95 110 104 86 65 77 69 90 2 5 15 16 24 26 27 28 33 64 73 94 103 115 120 122 123
b 24 110 104 86 65 77 69 90 2 5 15 16 20 24 26 27 28 33 64 73 94 103 115 120 122 123
b 25 116 66 99 111 100 76 82
b 26 102 82 119 4 62 87 8 31 128
b 27 35 54 118 49 53 39 55 48 2
b 28 118 49 53 39 41 55 34 48 2
b 29 49 53 39 38 41 55 34 48 2
b 30 39 38 41 52 55 34 48 2
b 31 58 75 61 71 89 105 7 66 99 98
b 32 61 71 89 105 7 66 99 111 98
b 33 89 105 7 88 66 99 111 98
b 34 7 88 66 99 111 100 98
b 35 88 66 99 111 100 76 98
b 36 66 99 111 100 76 98 82
b 37 100 76 19 98 82
b 38 76 19 98 79 82
b 39 19 98 79 84 45 59 80 82
b 40 96 42 38 41 52 55 3 14 34 63 1
b 41 127 93 32 78 97 84 1 11 106 109 121
b 42 38 41 52 55 3 14 34 48 63 1 2
b 43 3 14 34 48 63 46 1 2
b 44 46 45 1 2
b 45 104 86 65 77 69 90 2 5 15 16 20 24 26 27 28 30 33 64 73 94 103 115 120 122 123
b 46 113 112 21 68 5 16 27 30 56 64 117 121 125 126
b 47 112 21 68 5 6 16 27 30 56 64 117 121 125 126
b 48 21 68 5 6 16 27 30 56 64 109 117 121 125 126
b 49 68 5 6 16 27 30 56 64 106 109 117 121 125 126
b 50 124 10 8 128 6 15 20 24 26 28 33 64
b 51 10 8 23 31 128 6 15 20 24 26 28 33 64
b 52 65 77 69 90 2 5 6 15 16 20 24 26 27 28 30 33 64 73 92 94 103 115 120 122 123
b 53 77 69 90 2 5 6 15 16 20 24 26 27 28 30 33 56 64 73 92 94 103 115 120 122 123
b 54 69 90 2 5 6 15 16 20 24 26 27 28 30 33 56 64 73 92 94 103 115 120 122 123 126
b 55 93 32 78 97 84 45 1 11 9 23 106 109 117 121 125
b 56 32 78 97 79 84 45 1 11 4 9 23 72 106 109 117 121 125
b 57 78 97 79 84 45 1 80 11 4 9 23 72 106 109 117 121 125
b 58 97 79 84 45 1 59 80 11 4 9 23 72 106 109 117 121 125
b 59 79 84 45 1 59 80 11 82 4 9 23 72 106 109 117 121 125
b 60 45 1 59 80 11 82 4 9 23 72 2 106 109 117 121 125
b 61 1 59 80 11 82 4 9 23 72 2 6 20 106 109 117 121 125
b 62 59 80 11 82 119 4 9 23 31 72 2 6 20 106 109 117 121 125
b 63 80 11 82 119 4 9 87 8 23 31 72 2 6 20 106 109 117 121 125
b 64 11 82 119 4 9 87 8 23 31 72 2 6 20 92 106 109 117 121 125
b 65 82 119 4 9 62 87 8 23 31 128 72 2 6 20 92 106 109 117 121 125
b 66 119 4 9 62 87 8 23 31 57 128 72 2 6 20 92 106 109 117 121 125
b 67 4 9 62 87 8 23 31 57 128 72 2 6 20 24 73 92 106 109 115 117 121 122 125
b 68 9 62 87 8 23 31 57 128 72 2 6 20 24 26 33 73 92 103 106 109 115 117 121 122 125
b 69 62 87 8 23 31 57 128 72 2 6 20 24 26 33 73 92 103 106 109 115 117 120 121 122 125
b 70 8 23 31 57 128 72 2 6 15 20 24 26 28 33 64 73 92 103 106 109 115 117 120 121 122 125
b 71 57 128 72 2 6 15 20 24 26 28 33 64 73 92 94 103 106 109 115 117 120 121 122 123 125
b 72 72 2 5 6 15 20 24 26 28 33 64 73 92 94 103 106 109 115 117 120 121 122 123 125
b 73 2 5 6 15 16 20 24 26 27 28 30 33 56 64 73 92 94 103 106 109 115 117 120 121 122 123 125 126
b 74 107
1 10
10 14
14 43
43 42
42 40
40 15
42 30
30 29
29 28
28 27
27 17
17 8
8 5
15 4
43 44
44 60
60 59
59 58
58 57
57 56
60 61
61 62
62 63
63 64
64 65
65 66
66 67
67 68
68 69
69 70
70 71
71 72
72 73
73 54
54 53
53 52
52 45
45 24
24 23
23 22
22 21
21 20
20 12
12 11
56 55
73 49
49 48
48 47
47 46
70 51
46 19
51 50
55 41
19 18
65 26
59 39
39 38
38 37
26 9
37 36
36 25
36 35
25 16
35 34
16 13
34 33
33 32
32 31
13 7
7 6
35 3
1 2
1 74
